50
19838

218 919
855 500
382 569
297 211
255 571
112 378
636 698
708 524
637 666
266 803
732 14
892 952
232 692
992 421
155 128
54 429
625 881
554 744
310 968
185 12
969 312
865 426
450 481
816 299
113 563
274 702
967 44
522 578
152 884
841 413
726 620
244 577
454 738
210 279
453 43
551 365
932 575
148 651
773 917
443 114
841 475
289 716
172 185
720 264
990 309
101 107
341 969
692 833
6 857
95 556
